p tw 169 2165
1 122
1 161
1 11
1 28
1 45
1 62
1 78
1 69
1 95
1 112
1 129
1 145
1 150
1 162
1 7
1 19
1 31
1 43
1 55
1 67
1 2
1 25
1 86
1 98
1 110
1 158
1 8
1 23
1 39
1 54
1 71
1 137
1 84
1 100
1 116
1 131
2 155
2 5
2 22
2 153
2 167
2 15
2 29
2 44
2 59
2 73
2 148
2 84
2 25
2 86
2 98
2 154
2 169
2 18
2 34
2 50
2 65
2 93
2 79
2 95
2 111
2 127
2 142
82 79
82 96
82 113
82 130
82 58
82 91
82 106
82 120
82 135
82 93
82 104
82 115
82 126
82 69
82 94
82 109
82 125
82 141
93 80
93 97
93 114
93 69
93 92
93 107
93 121
93 136
93 104
93 115
93 126
93 79
93 95
93 111
93 127
93 142
104 81
104 99
104 79
104 94
104 108
104 123
104 138
104 115
104 126
104 80
104 96
104 112
104 128
104 143
115 83
115 80
115 95
115 109
115 124
115 139
115 126
115 81
115 97
115 113
115 129
115 144
126 81
126 96
126 111
126 125
126 140
126 83
126 99
126 114
126 130
126 145
137 85
137 102
137 119
137 136
137 148
137 159
137 3
137 14
137 36
137 47
137 58
137 69
137 79
137 80
137 81
137 83
137 84
137 100
137 116
137 131
148 87
148 103
148 120
148 138
148 84
148 159
148 3
148 14
148 36
148 47
148 58
148 69
148 79
148 80
148 81
148 83
148 85
148 101
148 117
148 132
159 88
159 105
159 121
159 139
159 85
159 100
159 3
159 14
159 36
159 47
159 58
159 69
159 79
159 80
159 81
159 83
159 87
159 102
159 118
159 133
3 89
3 106
3 123
3 140
3 87
3 101
3 116
3 14
3 36
3 47
3 58
3 69
3 79
3 80
3 81
3 83
3 88
3 103
3 119
3 135
14 90
14 107
14 124
14 141
14 88
14 102
14 117
14 131
14 36
14 47
14 58
14 69
14 79
14 80
14 81
14 83
14 89
14 105
14 120
14 136
25 156
25 6
25 154
25 168
25 16
25 30
25 45
25 60
25 74
25 85
25 100
25 86
25 98
25 155
25 4
25 20
25 35
25 51
25 66
25 80
25 96
25 112
25 128
25 143
36 91
36 108
36 125
36 142
36 89
36 103
36 118
36 132
36 47
36 58
36 69
36 79
36 80
36 81
36 83
36 90
36 106
36 121
36 138
47 92
47 109
47 127
47 143
47 90
47 105
47 119
47 133
47 58
47 69
47 79
47 80
47 81
47 83
47 91
47 107
47 123
47 139
58 94
58 111
58 128
58 144
58 91
58 106
58 120
58 135
58 69
58 79
58 80
58 81
58 83
58 92
58 108
58 124
58 140
69 95
69 112
69 129
69 145
69 92
69 107
69 121
69 136
69 79
69 80
69 81
69 83
69 94
69 109
69 125
69 141
79 96
79 113
79 130
79 94
79 108
79 123
79 138
79 80
79 81
79 83
79 95
79 111
79 127
79 142
80 97
80 114
80 95
80 109
80 124
80 139
80 81
80 83
80 96
80 112
80 128
80 143
81 99
81 96
81 111
81 125
81 140
81 83
81 97
81 113
81 129
81 144
83 97
83 112
83 127
83 141
83 99
83 114
83 130
83 145
84 101
84 118
84 135
84 85
84 87
84 88
84 89
84 90
84 91
84 92
84 94
84 95
84 96
84 97
84 99
84 100
84 116
84 131
85 102
85 119
85 136
85 100
85 87
85 88
85 89
85 90
85 91
85 92
85 94
85 95
85 96
85 97
85 99
85 101
85 117
85 132
86 157
86 155
86 169
86 17
86 32
86 46
86 61
86 75
86 87
86 101
86 116
86 98
86 156
86 5
86 21
86 37
86 52
86 68
86 97
86 113
86 129
86 144
87 103
87 120
87 138
87 101
87 116
87 88
87 89
87 90
87 91
87 92
87 94
87 95
87 96
87 97
87 99
87 102
87 118
87 133
88 105
88 121
88 139
88 102
88 117
88 131
88 89
88 90
88 91
88 92
88 94
88 95
88 96
88 97
88 99
88 103
88 119
88 135
89 106
89 123
89 140
89 103
89 118
89 132
89 90
89 91
89 92
89 94
89 95
89 96
89 97
89 99
89 105
89 120
89 136
90 107
90 124
90 141
90 105
90 119
90 133
90 91
90 92
90 94
90 95
90 96
90 97
90 99
90 106
90 121
90 138
91 108
91 125
91 142
91 106
91 120
91 135
91 92
91 94
91 95
91 96
91 97
91 99
91 107
91 123
91 139
92 109
92 127
92 143
92 107
92 121
92 136
92 94
92 95
92 96
92 97
92 99
92 108
92 124
92 140
94 111
94 128
94 144
94 108
94 123
94 138
94 95
94 96
94 97
94 99
94 109
94 125
94 141
95 112
95 129
95 145
95 109
95 124
95 139
95 96
95 97
95 99
95 111
95 127
95 142
96 113
96 130
96 111
96 125
96 140
96 97
96 99
96 112
96 128
96 143
97 114
97 112
97 127
97 141
97 99
97 113
97 129
97 144
98 156
98 4
98 18
98 33
98 48
98 62
98 76
98 102
98 117
98 131
98 157
98 6
98 22
98 38
98 53
98 70
98 99
98 114
98 130
98 145
99 113
99 128
99 142
99 114
99 130
99 145
100 117
100 133
100 101
100 102
100 103
100 105
100 106
100 107
100 108
100 109
100 111
100 112
100 113
100 114
100 116
100 131
101 118
101 135
101 116
101 102
101 103
101 105
101 106
101 107
101 108
101 109
101 111
101 112
101 113
101 114
101 117
101 132
102 119
102 136
102 117
102 131
102 103
102 105
102 106
102 107
102 108
102 109
102 111
102 112
102 113
102 114
102 118
102 133
103 120
103 138
103 118
103 132
103 105
103 106
103 107
103 108
103 109
103 111
103 112
103 113
103 114
103 119
103 135
105 121
105 139
105 119
105 133
105 106
105 107
105 108
105 109
105 111
105 112
105 113
105 114
105 120
105 136
106 123
106 140
106 120
106 135
106 107
106 108
106 109
106 111
106 112
106 113
106 114
106 121
106 138
107 124
107 141
107 121
107 136
107 108
107 109
107 111
107 112
107 113
107 114
107 123
107 139
108 125
108 142
108 123
108 138
108 109
108 111
108 112
108 113
108 114
108 124
108 140
109 127
109 143
109 124
109 139
109 111
109 112
109 113
109 114
109 125
109 141
110 160
110 10
110 27
110 44
110 61
110 77
110 111
110 128
110 144
110 122
110 134
110 146
110 147
110 149
110 151
110 152
110 153
110 154
110 155
110 156
110 157
110 158
110 8
110 23
110 39
110 54
110 71
110 116
110 131
111 128
111 144
111 125
111 140
111 112
111 113
111 114
111 127
111 142
112 129
112 145
112 127
112 141
112 113
112 114
112 128
112 143
113 130
113 128
113 142
113 114
113 129
113 144
114 129
114 143
114 130
114 145
116 132
116 117
116 118
116 119
116 120
116 121
116 123
116 124
116 125
116 127
116 128
116 129
116 130
116 131
117 133
117 131
117 118
117 119
117 120
117 121
117 123
117 124
117 125
117 127
117 128
117 129
117 130
117 132
118 135
118 132
118 119
118 120
118 121
118 123
118 124
118 125
118 127
118 128
118 129
118 130
118 133
119 136
119 133
119 120
119 121
119 123
119 124
119 125
119 127
119 128
119 129
119 130
119 135
120 138
120 135
120 121
120 123
120 124
120 125
120 127
120 128
120 129
120 130
120 136
121 139
121 136
121 123
121 124
121 125
121 127
121 128
121 129
121 130
121 138
122 161
122 11
122 28
122 45
122 62
122 78
122 129
122 145
122 158
122 134
122 146
122 147
122 149
122 151
122 152
122 153
122 154
122 155
122 156
122 157
122 160
122 9
122 24
122 40
122 56
122 72
122 132
123 140
123 138
123 124
123 125
123 127
123 128
123 129
123 130
123 139
124 141
124 139
124 125
124 127
124 128
124 129
124 130
124 140
125 142
125 140
125 127
125 128
125 129
125 130
125 141
127 143
127 141
127 128
127 129
127 130
127 142
128 144
128 142
128 129
128 130
128 143
129 145
129 143
129 130
129 144
130 144
130 145
131 132
131 133
131 135
131 136
131 138
131 139
131 140
131 141
131 142
131 143
131 144
131 145
132 133
132 135
132 136
132 138
132 139
132 140
132 141
132 142
132 143
132 144
132 145
133 135
133 136
133 138
133 139
133 140
133 141
133 142
133 143
133 144
133 145
134 163
134 12
134 29
134 46
134 63
134 160
134 8
134 146
134 147
134 149
134 151
134 152
134 153
134 154
134 155
134 156
134 157
134 161
134 10
134 26
134 41
134 57
134 73
135 136
135 138
135 139
135 140
135 141
135 142
135 143
135 144
135 145
136 138
136 139
136 140
136 141
136 142
136 143
136 144
136 145
138 139
138 140
138 141
138 142
138 143
138 144
138 145
139 140
139 141
139 142
139 143
139 144
139 145
140 141
140 142
140 143
140 144
140 145
141 142
141 143
141 144
141 145
142 143
142 144
142 145
143 144
143 145
144 145
146 164
146 13
146 30
146 48
146 64
146 161
146 9
146 23
146 147
146 149
146 151
146 152
146 153
146 154
146 155
146 156
146 157
146 163
146 11
146 27
146 42
146 59
146 74
147 165
147 15
147 32
147 49
147 65
147 163
147 10
147 24
147 39
147 149
147 151
147 152
147 153
147 154
147 155
147 156
147 157
147 164
147 12
147 28
147 44
147 60
147 75
149 166
149 16
149 33
149 50
149 66
149 164
149 11
149 26
149 40
149 54
149 151
149 152
149 153
149 154
149 155
149 156
149 157
149 165
149 13
149 29
149 45
149 61
149 76
150 163
150 12
150 29
150 46
150 63
150 162
150 7
150 19
150 31
150 43
150 55
150 67
150 160
150 9
150 24
150 40
150 56
150 72
151 167
151 17
151 34
151 51
151 68
151 165
151 12
151 27
151 41
151 56
151 71
151 152
151 153
151 154
151 155
151 156
151 157
151 166
151 15
151 30
151 46
151 62
151 77
152 168
152 18
152 35
152 52
152 70
152 166
152 13
152 28
152 42
152 57
152 72
152 153
152 154
152 155
152 156
152 157
152 167
152 16
152 32
152 48
152 63
152 78
153 169
153 20
153 37
153 53
153 167
153 15
153 29
153 44
153 59
153 73
153 154
153 155
153 156
153 157
153 168
153 17
153 33
153 49
153 64
154 4
154 21
154 38
154 168
154 16
154 30
154 45
154 60
154 74
154 155
154 156
154 157
154 169
154 18
154 34
154 50
154 65
155 5
155 22
155 169
155 17
155 32
155 46
155 61
155 75
155 156
155 157
155 4
155 20
155 35
155 51
155 66
156 6
156 4
156 18
156 33
156 48
156 62
156 76
156 157
156 5
156 21
156 37
156 52
156 68
157 5
157 20
157 34
157 49
157 63
157 77
157 6
157 22
157 38
157 53
157 70
158 9
158 26
158 42
158 60
158 76
158 160
158 161
158 163
158 164
158 165
158 166
158 167
158 168
158 169
158 4
158 5
158 6
158 8
158 23
158 39
158 54
158 71
160 10
160 27
160 44
160 61
160 77
160 8
160 161
160 163
160 164
160 165
160 166
160 167
160 168
160 169
160 4
160 5
160 6
160 9
160 24
160 40
160 56
160 72
161 11
161 28
161 45
161 62
161 78
161 9
161 23
161 163
161 164
161 165
161 166
161 167
161 168
161 169
161 4
161 5
161 6
161 10
161 26
161 41
161 57
161 73
162 164
162 13
162 30
162 48
162 64
162 7
162 19
162 31
162 43
162 55
162 67
162 10
162 26
162 41
162 57
162 73
163 12
163 29
163 46
163 63
163 10
163 24
163 39
163 164
163 165
163 166
163 167
163 168
163 169
163 4
163 5
163 6
163 11
163 27
163 42
163 59
163 74
164 13
164 30
164 48
164 64
164 11
164 26
164 40
164 54
164 165
164 166
164 167
164 168
164 169
164 4
164 5
164 6
164 12
164 28
164 44
164 60
164 75
165 15
165 32
165 49
165 65
165 12
165 27
165 41
165 56
165 71
165 166
165 167
165 168
165 169
165 4
165 5
165 6
165 13
165 29
165 45
165 61
165 76
166 16
166 33
166 50
166 66
166 13
166 28
166 42
166 57
166 72
166 167
166 168
166 169
166 4
166 5
166 6
166 15
166 30
166 46
166 62
166 77
167 17
167 34
167 51
167 68
167 15
167 29
167 44
167 59
167 73
167 168
167 169
167 4
167 5
167 6
167 16
167 32
167 48
167 63
167 78
168 18
168 35
168 52
168 70
168 16
168 30
168 45
168 60
168 74
168 169
168 4
168 5
168 6
168 17
168 33
168 49
168 64
169 20
169 37
169 53
169 17
169 32
169 46
169 61
169 75
169 4
169 5
169 6
169 18
169 34
169 50
169 65
4 21
4 38
4 18
4 33
4 48
4 62
4 76
4 5
4 6
4 20
4 35
4 51
4 66
5 22
5 20
5 34
5 49
5 63
5 77
5 6
5 21
5 37
5 52
5 68
6 21
6 35
6 50
6 64
6 78
6 22
6 38
6 53
6 70
7 15
7 32
7 49
7 65
7 8
7 19
7 31
7 43
7 55
7 67
7 11
7 27
7 42
7 59
7 74
8 24
8 41
8 59
8 75
8 9
8 10
8 11
8 12
8 13
8 15
8 16
8 17
8 18
8 20
8 21
8 22
8 23
8 39
8 54
8 71
9 26
9 42
9 60
9 76
9 23
9 10
9 11
9 12
9 13
9 15
9 16
9 17
9 18
9 20
9 21
9 22
9 24
9 40
9 56
9 72
10 27
10 44
10 61
10 77
10 24
10 39
10 11
10 12
10 13
10 15
10 16
10 17
10 18
10 20
10 21
10 22
10 26
10 41
10 57
10 73
11 28
11 45
11 62
11 78
11 26
11 40
11 54
11 12
11 13
11 15
11 16
11 17
11 18
11 20
11 21
11 22
11 27
11 42
11 59
11 74
12 29
12 46
12 63
12 27
12 41
12 56
12 71
12 13
12 15
12 16
12 17
12 18
12 20
12 21
12 22
12 28
12 44
12 60
12 75
13 30
13 48
13 64
13 28
13 42
13 57
13 72
13 15
13 16
13 17
13 18
13 20
13 21
13 22
13 29
13 45
13 61
13 76
15 32
15 49
15 65
15 29
15 44
15 59
15 73
15 16
15 17
15 18
15 20
15 21
15 22
15 30
15 46
15 62
15 77
16 33
16 50
16 66
16 30
16 45
16 60
16 74
16 17
16 18
16 20
16 21
16 22
16 32
16 48
16 63
16 78
17 34
17 51
17 68
17 32
17 46
17 61
17 75
17 18
17 20
17 21
17 22
17 33
17 49
17 64
18 35
18 52
18 70
18 33
18 48
18 62
18 76
18 20
18 21
18 22
18 34
18 50
18 65
19 33
19 50
19 66
19 23
19 31
19 43
19 55
19 67
19 28
19 44
19 60
19 75
20 37
20 53
20 34
20 49
20 63
20 77
20 21
20 22
20 35
20 51
20 66
21 38
21 35
21 50
21 64
21 78
21 22
21 37
21 52
21 68
22 37
22 51
22 65
22 38
22 53
22 70
23 40
23 57
23 74
23 24
23 26
23 27
23 28
23 29
23 30
23 32
23 33
23 34
23 35
23 37
23 38
23 39
23 54
23 71
24 41
24 59
24 75
24 39
24 26
24 27
24 28
24 29
24 30
24 32
24 33
24 34
24 35
24 37
24 38
24 40
24 56
24 72
26 42
26 60
26 76
26 40
26 54
26 27
26 28
26 29
26 30
26 32
26 33
26 34
26 35
26 37
26 38
26 41
26 57
26 73
27 44
27 61
27 77
27 41
27 56
27 71
27 28
27 29
27 30
27 32
27 33
27 34
27 35
27 37
27 38
27 42
27 59
27 74
28 45
28 62
28 78
28 42
28 57
28 72
28 29
28 30
28 32
28 33
28 34
28 35
28 37
28 38
28 44
28 60
28 75
29 46
29 63
29 44
29 59
29 73
29 30
29 32
29 33
29 34
29 35
29 37
29 38
29 45
29 61
29 76
30 48
30 64
30 45
30 60
30 74
30 32
30 33
30 34
30 35
30 37
30 38
30 46
30 62
30 77
31 34
31 51
31 68
31 39
31 43
31 55
31 67
31 45
31 61
31 76
32 49
32 65
32 46
32 61
32 75
32 33
32 34
32 35
32 37
32 38
32 48
32 63
32 78
33 50
33 66
33 48
33 62
33 76
33 34
33 35
33 37
33 38
33 49
33 64
34 51
34 68
34 49
34 63
34 77
34 35
34 37
34 38
34 50
34 65
35 52
35 70
35 50
35 64
35 78
35 37
35 38
35 51
35 66
37 53
37 51
37 65
37 38
37 52
37 68
38 52
38 66
38 53
38 70
39 56
39 73
39 40
39 41
39 42
39 44
39 45
39 46
39 48
39 49
39 50
39 51
39 52
39 53
39 54
39 71
40 57
40 74
40 54
40 41
40 42
40 44
40 45
40 46
40 48
40 49
40 50
40 51
40 52
40 53
40 56
40 72
41 59
41 75
41 56
41 71
41 42
41 44
41 45
41 46
41 48
41 49
41 50
41 51
41 52
41 53
41 57
41 73
42 60
42 76
42 57
42 72
42 44
42 45
42 46
42 48
42 49
42 50
42 51
42 52
42 53
42 59
42 74
43 52
43 70
43 54
43 55
43 67
43 46
43 62
43 77
44 61
44 77
44 59
44 73
44 45
44 46
44 48
44 49
44 50
44 51
44 52
44 53
44 60
44 75
45 62
45 78
45 60
45 74
45 46
45 48
45 49
45 50
45 51
45 52
45 53
45 61
45 76
46 63
46 61
46 75
46 48
46 49
46 50
46 51
46 52
46 53
46 62
46 77
48 64
48 62
48 76
48 49
48 50
48 51
48 52
48 53
48 63
48 78
49 65
49 63
49 77
49 50
49 51
49 52
49 53
49 64
50 66
50 64
50 78
50 51
50 52
50 53
50 65
51 68
51 65
51 52
51 53
51 66
52 70
52 66
52 53
52 68
53 68
53 70
54 72
54 56
54 57
54 59
54 60
54 61
54 62
54 63
54 64
54 65
54 66
54 68
54 70
54 71
55 56
55 71
55 67
55 63
55 78
56 73
56 71
56 57
56 59
56 60
56 61
56 62
56 63
56 64
56 65
56 66
56 68
56 70
56 72
57 74
57 72
57 59
57 60
57 61
57 62
57 63
57 64
57 65
57 66
57 68
57 70
57 73
59 75
59 73
59 60
59 61
59 62
59 63
59 64
59 65
59 66
59 68
59 70
59 74
60 76
60 74
60 61
60 62
60 63
60 64
60 65
60 66
60 68
60 70
60 75
61 77
61 75
61 62
61 63
61 64
61 65
61 66
61 68
61 70
61 76
62 78
62 76
62 63
62 64
62 65
62 66
62 68
62 70
62 77
63 77
63 64
63 65
63 66
63 68
63 70
63 78
64 78
64 65
64 66
64 68
64 70
65 66
65 68
65 70
66 68
66 70
67 72
68 70
71 72
71 73
71 74
71 75
71 76
71 77
71 78
72 73
72 74
72 75
72 76
72 77
72 78
73 74
73 75
73 76
73 77
73 78
74 75
74 76
74 77
74 78
75 76
75 77
75 78
76 77
76 78
77 78
